c at-most-one of 14 pigeons in 13 holes
c p1@1 1
c p1@2 2
c p1@3 3
c p1@4 4
c p1@5 5
c p1@6 6
c p1@7 7
c p1@8 8
c p1@9 9
c p1@10 10
c p1@11 11
c p1@12 12
c p1@13 13
c p2@1 14
c p2@2 15
c p2@3 16
c p2@4 17
c p2@5 18
c p2@6 19
c p2@7 20
c p2@8 21
c p2@9 22
c p2@10 23
c p2@11 24
c p2@12 25
c p2@13 26
c p3@1 27
c p3@2 28
c p3@3 29
c p3@4 30
c p3@5 31
c p3@6 32
c p3@7 33
c p3@8 34
c p3@9 35
c p3@10 36
c p3@11 37
c p3@12 38
c p3@13 39
c p4@1 40
c p4@2 41
c p4@3 42
c p4@4 43
c p4@5 44
c p4@6 45
c p4@7 46
c p4@8 47
c p4@9 48
c p4@10 49
c p4@11 50
c p4@12 51
c p4@13 52
c p5@1 53
c p5@2 54
c p5@3 55
c p5@4 56
c p5@5 57
c p5@6 58
c p5@7 59
c p5@8 60
c p5@9 61
c p5@10 62
c p5@11 63
c p5@12 64
c p5@13 65
c p6@1 66
c p6@2 67
c p6@3 68
c p6@4 69
c p6@5 70
c p6@6 71
c p6@7 72
c p6@8 73
c p6@9 74
c p6@10 75
c p6@11 76
c p6@12 77
c p6@13 78
c p7@1 79
c p7@2 80
c p7@3 81
c p7@4 82
c p7@5 83
c p7@6 84
c p7@7 85
c p7@8 86
c p7@9 87
c p7@10 88
c p7@11 89
c p7@12 90
c p7@13 91
c p8@1 92
c p8@2 93
c p8@3 94
c p8@4 95
c p8@5 96
c p8@6 97
c p8@7 98
c p8@8 99
c p8@9 100
c p8@10 101
c p8@11 102
c p8@12 103
c p8@13 104
c p9@1 105
c p9@2 106
c p9@3 107
c p9@4 108
c p9@5 109
c p9@6 110
c p9@7 111
c p9@8 112
c p9@9 113
c p9@10 114
c p9@11 115
c p9@12 116
c p9@13 117
c p10@1 118
c p10@2 119
c p10@3 120
c p10@4 121
c p10@5 122
c p10@6 123
c p10@7 124
c p10@8 125
c p10@9 126
c p10@10 127
c p10@11 128
c p10@12 129
c p10@13 130
c p11@1 131
c p11@2 132
c p11@3 133
c p11@4 134
c p11@5 135
c p11@6 136
c p11@7 137
c p11@8 138
c p11@9 139
c p11@10 140
c p11@11 141
c p11@12 142
c p11@13 143
c p12@1 144
c p12@2 145
c p12@3 146
c p12@4 147
c p12@5 148
c p12@6 149
c p12@7 150
c p12@8 151
c p12@9 152
c p12@10 153
c p12@11 154
c p12@12 155
c p12@13 156
c p13@1 157
c p13@2 158
c p13@3 159
c p13@4 160
c p13@5 161
c p13@6 162
c p13@7 163
c p13@8 164
c p13@9 165
c p13@10 166
c p13@11 167
c p13@12 168
c p13@13 169
c p14@1 170
c p14@2 171
c p14@3 172
c p14@4 173
c p14@5 174
c p14@6 175
c p14@7 176
c p14@8 177
c p14@9 178
c p14@10 179
c p14@11 180
c p14@12 181
c p14@13 182
p inccnf
1 2 3 4 5 6 7 8 9 10 11 12 13 0
14 15 16 17 18 19 20 21 22 23 24 25 26 0
27 28 29 30 31 32 33 34 35 36 37 38 39 0
40 41 42 43 44 45 46 47 48 49 50 51 52 0
53 54 55 56 57 58 59 60 61 62 63 64 65 0
66 67 68 69 70 71 72 73 74 75 76 77 78 0
79 80 81 82 83 84 85 86 87 88 89 90 91 0
92 93 94 95 96 97 98 99 100 101 102 103 104 0
105 106 107 108 109 110 111 112 113 114 115 116 117 0
118 119 120 121 122 123 124 125 126 127 128 129 130 0
131 132 133 134 135 136 137 138 139 140 141 142 143 0
144 145 146 147 148 149 150 151 152 153 154 155 156 0
157 158 159 160 161 162 163 164 165 166 167 168 169 0
170 171 172 173 174 175 176 177 178 179 180 181 182 0
-1 -14 0
-1 -27 0
-1 -40 0
-1 -53 0
-1 -66 0
-1 -79 0
-1 -92 0
-1 -105 0
-1 -118 0
-1 -131 0
-1 -144 0
-1 -157 0
-1 -170 0
-14 -27 0
-14 -40 0
-14 -53 0
-14 -66 0
-14 -79 0
-14 -92 0
-14 -105 0
-14 -118 0
-14 -131 0
-14 -144 0
-14 -157 0
-14 -170 0
-27 -40 0
-27 -53 0
-27 -66 0
-27 -79 0
-27 -92 0
-27 -105 0
-27 -118 0
-27 -131 0
-27 -144 0
-27 -157 0
-27 -170 0
-40 -53 0
-40 -66 0
-40 -79 0
-40 -92 0
-40 -105 0
-40 -118 0
-40 -131 0
-40 -144 0
-40 -157 0
-40 -170 0
-53 -66 0
-53 -79 0
-53 -92 0
-53 -105 0
-53 -118 0
-53 -131 0
-53 -144 0
-53 -157 0
-53 -170 0
-66 -79 0
-66 -92 0
-66 -105 0
-66 -118 0
-66 -131 0
-66 -144 0
-66 -157 0
-66 -170 0
-79 -92 0
-79 -105 0
-79 -118 0
-79 -131 0
-79 -144 0
-79 -157 0
-79 -170 0
-92 -105 0
-92 -118 0
-92 -131 0
-92 -144 0
-92 -157 0
-92 -170 0
-105 -118 0
-105 -131 0
-105 -144 0
-105 -157 0
-105 -170 0
-118 -131 0
-118 -144 0
-118 -157 0
-118 -170 0
-131 -144 0
-131 -157 0
-131 -170 0
-144 -157 0
-144 -170 0
-157 -170 0
-2 -15 0
-2 -28 0
-2 -41 0
-2 -54 0
-2 -67 0
-2 -80 0
-2 -93 0
-2 -106 0
-2 -119 0
-2 -132 0
-2 -145 0
-2 -158 0
-2 -171 0
-15 -28 0
-15 -41 0
-15 -54 0
-15 -67 0
-15 -80 0
-15 -93 0
-15 -106 0
-15 -119 0
-15 -132 0
-15 -145 0
-15 -158 0
-15 -171 0
-28 -41 0
-28 -54 0
-28 -67 0
-28 -80 0
-28 -93 0
-28 -106 0
-28 -119 0
-28 -132 0
-28 -145 0
-28 -158 0
-28 -171 0
-41 -54 0
-41 -67 0
-41 -80 0
-41 -93 0
-41 -106 0
-41 -119 0
-41 -132 0
-41 -145 0
-41 -158 0
-41 -171 0
-54 -67 0
-54 -80 0
-54 -93 0
-54 -106 0
-54 -119 0
-54 -132 0
-54 -145 0
-54 -158 0
-54 -171 0
-67 -80 0
-67 -93 0
-67 -106 0
-67 -119 0
-67 -132 0
-67 -145 0
-67 -158 0
-67 -171 0
-80 -93 0
-80 -106 0
-80 -119 0
-80 -132 0
-80 -145 0
-80 -158 0
-80 -171 0
-93 -106 0
-93 -119 0
-93 -132 0
-93 -145 0
-93 -158 0
-93 -171 0
-106 -119 0
-106 -132 0
-106 -145 0
-106 -158 0
-106 -171 0
-119 -132 0
-119 -145 0
-119 -158 0
-119 -171 0
-132 -145 0
-132 -158 0
-132 -171 0
-145 -158 0
-145 -171 0
-158 -171 0
-3 -16 0
-3 -29 0
-3 -42 0
-3 -55 0
-3 -68 0
-3 -81 0
-3 -94 0
-3 -107 0
-3 -120 0
-3 -133 0
-3 -146 0
-3 -159 0
-3 -172 0
-16 -29 0
-16 -42 0
-16 -55 0
-16 -68 0
-16 -81 0
-16 -94 0
-16 -107 0
-16 -120 0
-16 -133 0
-16 -146 0
-16 -159 0
-16 -172 0
-29 -42 0
-29 -55 0
-29 -68 0
-29 -81 0
-29 -94 0
-29 -107 0
-29 -120 0
-29 -133 0
-29 -146 0
-29 -159 0
-29 -172 0
-42 -55 0
-42 -68 0
-42 -81 0
-42 -94 0
-42 -107 0
-42 -120 0
-42 -133 0
-42 -146 0
-42 -159 0
-42 -172 0
-55 -68 0
-55 -81 0
-55 -94 0
-55 -107 0
-55 -120 0
-55 -133 0
-55 -146 0
-55 -159 0
-55 -172 0
-68 -81 0
-68 -94 0
-68 -107 0
-68 -120 0
-68 -133 0
-68 -146 0
-68 -159 0
-68 -172 0
-81 -94 0
-81 -107 0
-81 -120 0
-81 -133 0
-81 -146 0
-81 -159 0
-81 -172 0
-94 -107 0
-94 -120 0
-94 -133 0
-94 -146 0
-94 -159 0
-94 -172 0
-107 -120 0
-107 -133 0
-107 -146 0
-107 -159 0
-107 -172 0
-120 -133 0
-120 -146 0
-120 -159 0
-120 -172 0
-133 -146 0
-133 -159 0
-133 -172 0
-146 -159 0
-146 -172 0
-159 -172 0
-4 -17 0
-4 -30 0
-4 -43 0
-4 -56 0
-4 -69 0
-4 -82 0
-4 -95 0
-4 -108 0
-4 -121 0
-4 -134 0
-4 -147 0
-4 -160 0
-4 -173 0
-17 -30 0
-17 -43 0
-17 -56 0
-17 -69 0
-17 -82 0
-17 -95 0
-17 -108 0
-17 -121 0
-17 -134 0
-17 -147 0
-17 -160 0
-17 -173 0
-30 -43 0
-30 -56 0
-30 -69 0
-30 -82 0
-30 -95 0
-30 -108 0
-30 -121 0
-30 -134 0
-30 -147 0
-30 -160 0
-30 -173 0
-43 -56 0
-43 -69 0
-43 -82 0
-43 -95 0
-43 -108 0
-43 -121 0
-43 -134 0
-43 -147 0
-43 -160 0
-43 -173 0
-56 -69 0
-56 -82 0
-56 -95 0
-56 -108 0
-56 -121 0
-56 -134 0
-56 -147 0
-56 -160 0
-56 -173 0
-69 -82 0
-69 -95 0
-69 -108 0
-69 -121 0
-69 -134 0
-69 -147 0
-69 -160 0
-69 -173 0
-82 -95 0
-82 -108 0
-82 -121 0
-82 -134 0
-82 -147 0
-82 -160 0
-82 -173 0
-95 -108 0
-95 -121 0
-95 -134 0
-95 -147 0
-95 -160 0
-95 -173 0
-108 -121 0
-108 -134 0
-108 -147 0
-108 -160 0
-108 -173 0
-121 -134 0
-121 -147 0
-121 -160 0
-121 -173 0
-134 -147 0
-134 -160 0
-134 -173 0
-147 -160 0
-147 -173 0
-160 -173 0
-5 -18 0
-5 -31 0
-5 -44 0
-5 -57 0
-5 -70 0
-5 -83 0
-5 -96 0
-5 -109 0
-5 -122 0
-5 -135 0
-5 -148 0
-5 -161 0
-5 -174 0
-18 -31 0
-18 -44 0
-18 -57 0
-18 -70 0
-18 -83 0
-18 -96 0
-18 -109 0
-18 -122 0
-18 -135 0
-18 -148 0
-18 -161 0
-18 -174 0
-31 -44 0
-31 -57 0
-31 -70 0
-31 -83 0
-31 -96 0
-31 -109 0
-31 -122 0
-31 -135 0
-31 -148 0
-31 -161 0
-31 -174 0
-44 -57 0
-44 -70 0
-44 -83 0
-44 -96 0
-44 -109 0
-44 -122 0
-44 -135 0
-44 -148 0
-44 -161 0
-44 -174 0
-57 -70 0
-57 -83 0
-57 -96 0
-57 -109 0
-57 -122 0
-57 -135 0
-57 -148 0
-57 -161 0
-57 -174 0
-70 -83 0
-70 -96 0
-70 -109 0
-70 -122 0
-70 -135 0
-70 -148 0
-70 -161 0
-70 -174 0
-83 -96 0
-83 -109 0
-83 -122 0
-83 -135 0
-83 -148 0
-83 -161 0
-83 -174 0
-96 -109 0
-96 -122 0
-96 -135 0
-96 -148 0
-96 -161 0
-96 -174 0
-109 -122 0
-109 -135 0
-109 -148 0
-109 -161 0
-109 -174 0
-122 -135 0
-122 -148 0
-122 -161 0
-122 -174 0
-135 -148 0
-135 -161 0
-135 -174 0
-148 -161 0
-148 -174 0
-161 -174 0
-6 -19 0
-6 -32 0
-6 -45 0
-6 -58 0
-6 -71 0
-6 -84 0
-6 -97 0
-6 -110 0
-6 -123 0
-6 -136 0
-6 -149 0
-6 -162 0
-6 -175 0
-19 -32 0
-19 -45 0
-19 -58 0
-19 -71 0
-19 -84 0
-19 -97 0
-19 -110 0
-19 -123 0
-19 -136 0
-19 -149 0
-19 -162 0
-19 -175 0
-32 -45 0
-32 -58 0
-32 -71 0
-32 -84 0
-32 -97 0
-32 -110 0
-32 -123 0
-32 -136 0
-32 -149 0
-32 -162 0
-32 -175 0
-45 -58 0
-45 -71 0
-45 -84 0
-45 -97 0
-45 -110 0
-45 -123 0
-45 -136 0
-45 -149 0
-45 -162 0
-45 -175 0
-58 -71 0
-58 -84 0
-58 -97 0
-58 -110 0
-58 -123 0
-58 -136 0
-58 -149 0
-58 -162 0
-58 -175 0
-71 -84 0
-71 -97 0
-71 -110 0
-71 -123 0
-71 -136 0
-71 -149 0
-71 -162 0
-71 -175 0
-84 -97 0
-84 -110 0
-84 -123 0
-84 -136 0
-84 -149 0
-84 -162 0
-84 -175 0
-97 -110 0
-97 -123 0
-97 -136 0
-97 -149 0
-97 -162 0
-97 -175 0
-110 -123 0
-110 -136 0
-110 -149 0
-110 -162 0
-110 -175 0
-123 -136 0
-123 -149 0
-123 -162 0
-123 -175 0
-136 -149 0
-136 -162 0
-136 -175 0
-149 -162 0
-149 -175 0
-162 -175 0
-7 -20 0
-7 -33 0
-7 -46 0
-7 -59 0
-7 -72 0
-7 -85 0
-7 -98 0
-7 -111 0
-7 -124 0
-7 -137 0
-7 -150 0
-7 -163 0
-7 -176 0
-20 -33 0
-20 -46 0
-20 -59 0
-20 -72 0
-20 -85 0
-20 -98 0
-20 -111 0
-20 -124 0
-20 -137 0
-20 -150 0
-20 -163 0
-20 -176 0
-33 -46 0
-33 -59 0
-33 -72 0
-33 -85 0
-33 -98 0
-33 -111 0
-33 -124 0
-33 -137 0
-33 -150 0
-33 -163 0
-33 -176 0
-46 -59 0
-46 -72 0
-46 -85 0
-46 -98 0
-46 -111 0
-46 -124 0
-46 -137 0
-46 -150 0
-46 -163 0
-46 -176 0
-59 -72 0
-59 -85 0
-59 -98 0
-59 -111 0
-59 -124 0
-59 -137 0
-59 -150 0
-59 -163 0
-59 -176 0
-72 -85 0
-72 -98 0
-72 -111 0
-72 -124 0
-72 -137 0
-72 -150 0
-72 -163 0
-72 -176 0
-85 -98 0
-85 -111 0
-85 -124 0
-85 -137 0
-85 -150 0
-85 -163 0
-85 -176 0
-98 -111 0
-98 -124 0
-98 -137 0
-98 -150 0
-98 -163 0
-98 -176 0
-111 -124 0
-111 -137 0
-111 -150 0
-111 -163 0
-111 -176 0
-124 -137 0
-124 -150 0
-124 -163 0
-124 -176 0
-137 -150 0
-137 -163 0
-137 -176 0
-150 -163 0
-150 -176 0
-163 -176 0
-8 -21 0
-8 -34 0
-8 -47 0
-8 -60 0
-8 -73 0
-8 -86 0
-8 -99 0
-8 -112 0
-8 -125 0
-8 -138 0
-8 -151 0
-8 -164 0
-8 -177 0
-21 -34 0
-21 -47 0
-21 -60 0
-21 -73 0
-21 -86 0
-21 -99 0
-21 -112 0
-21 -125 0
-21 -138 0
-21 -151 0
-21 -164 0
-21 -177 0
-34 -47 0
-34 -60 0
-34 -73 0
-34 -86 0
-34 -99 0
-34 -112 0
-34 -125 0
-34 -138 0
-34 -151 0
-34 -164 0
-34 -177 0
-47 -60 0
-47 -73 0
-47 -86 0
-47 -99 0
-47 -112 0
-47 -125 0
-47 -138 0
-47 -151 0
-47 -164 0
-47 -177 0
-60 -73 0
-60 -86 0
-60 -99 0
-60 -112 0
-60 -125 0
-60 -138 0
-60 -151 0
-60 -164 0
-60 -177 0
-73 -86 0
-73 -99 0
-73 -112 0
-73 -125 0
-73 -138 0
-73 -151 0
-73 -164 0
-73 -177 0
-86 -99 0
-86 -112 0
-86 -125 0
-86 -138 0
-86 -151 0
-86 -164 0
-86 -177 0
-99 -112 0
-99 -125 0
-99 -138 0
-99 -151 0
-99 -164 0
-99 -177 0
-112 -125 0
-112 -138 0
-112 -151 0
-112 -164 0
-112 -177 0
-125 -138 0
-125 -151 0
-125 -164 0
-125 -177 0
-138 -151 0
-138 -164 0
-138 -177 0
-151 -164 0
-151 -177 0
-164 -177 0
-9 -22 0
-9 -35 0
-9 -48 0
-9 -61 0
-9 -74 0
-9 -87 0
-9 -100 0
-9 -113 0
-9 -126 0
-9 -139 0
-9 -152 0
-9 -165 0
-9 -178 0
-22 -35 0
-22 -48 0
-22 -61 0
-22 -74 0
-22 -87 0
-22 -100 0
-22 -113 0
-22 -126 0
-22 -139 0
-22 -152 0
-22 -165 0
-22 -178 0
-35 -48 0
-35 -61 0
-35 -74 0
-35 -87 0
-35 -100 0
-35 -113 0
-35 -126 0
-35 -139 0
-35 -152 0
-35 -165 0
-35 -178 0
-48 -61 0
-48 -74 0
-48 -87 0
-48 -100 0
-48 -113 0
-48 -126 0
-48 -139 0
-48 -152 0
-48 -165 0
-48 -178 0
-61 -74 0
-61 -87 0
-61 -100 0
-61 -113 0
-61 -126 0
-61 -139 0
-61 -152 0
-61 -165 0
-61 -178 0
-74 -87 0
-74 -100 0
-74 -113 0
-74 -126 0
-74 -139 0
-74 -152 0
-74 -165 0
-74 -178 0
-87 -100 0
-87 -113 0
-87 -126 0
-87 -139 0
-87 -152 0
-87 -165 0
-87 -178 0
-100 -113 0
-100 -126 0
-100 -139 0
-100 -152 0
-100 -165 0
-100 -178 0
-113 -126 0
-113 -139 0
-113 -152 0
-113 -165 0
-113 -178 0
-126 -139 0
-126 -152 0
-126 -165 0
-126 -178 0
-139 -152 0
-139 -165 0
-139 -178 0
-152 -165 0
-152 -178 0
-165 -178 0
-10 -23 0
-10 -36 0
-10 -49 0
-10 -62 0
-10 -75 0
-10 -88 0
-10 -101 0
-10 -114 0
-10 -127 0
-10 -140 0
-10 -153 0
-10 -166 0
-10 -179 0
-23 -36 0
-23 -49 0
-23 -62 0
-23 -75 0
-23 -88 0
-23 -101 0
-23 -114 0
-23 -127 0
-23 -140 0
-23 -153 0
-23 -166 0
-23 -179 0
-36 -49 0
-36 -62 0
-36 -75 0
-36 -88 0
-36 -101 0
-36 -114 0
-36 -127 0
-36 -140 0
-36 -153 0
-36 -166 0
-36 -179 0
-49 -62 0
-49 -75 0
-49 -88 0
-49 -101 0
-49 -114 0
-49 -127 0
-49 -140 0
-49 -153 0
-49 -166 0
-49 -179 0
-62 -75 0
-62 -88 0
-62 -101 0
-62 -114 0
-62 -127 0
-62 -140 0
-62 -153 0
-62 -166 0
-62 -179 0
-75 -88 0
-75 -101 0
-75 -114 0
-75 -127 0
-75 -140 0
-75 -153 0
-75 -166 0
-75 -179 0
-88 -101 0
-88 -114 0
-88 -127 0
-88 -140 0
-88 -153 0
-88 -166 0
-88 -179 0
-101 -114 0
-101 -127 0
-101 -140 0
-101 -153 0
-101 -166 0
-101 -179 0
-114 -127 0
-114 -140 0
-114 -153 0
-114 -166 0
-114 -179 0
-127 -140 0
-127 -153 0
-127 -166 0
-127 -179 0
-140 -153 0
-140 -166 0
-140 -179 0
-153 -166 0
-153 -179 0
-166 -179 0
-11 -24 0
-11 -37 0
-11 -50 0
-11 -63 0
-11 -76 0
-11 -89 0
-11 -102 0
-11 -115 0
-11 -128 0
-11 -141 0
-11 -154 0
-11 -167 0
-11 -180 0
-24 -37 0
-24 -50 0
-24 -63 0
-24 -76 0
-24 -89 0
-24 -102 0
-24 -115 0
-24 -128 0
-24 -141 0
-24 -154 0
-24 -167 0
-24 -180 0
-37 -50 0
-37 -63 0
-37 -76 0
-37 -89 0
-37 -102 0
-37 -115 0
-37 -128 0
-37 -141 0
-37 -154 0
-37 -167 0
-37 -180 0
-50 -63 0
-50 -76 0
-50 -89 0
-50 -102 0
-50 -115 0
-50 -128 0
-50 -141 0
-50 -154 0
-50 -167 0
-50 -180 0
-63 -76 0
-63 -89 0
-63 -102 0
-63 -115 0
-63 -128 0
-63 -141 0
-63 -154 0
-63 -167 0
-63 -180 0
-76 -89 0
-76 -102 0
-76 -115 0
-76 -128 0
-76 -141 0
-76 -154 0
-76 -167 0
-76 -180 0
-89 -102 0
-89 -115 0
-89 -128 0
-89 -141 0
-89 -154 0
-89 -167 0
-89 -180 0
-102 -115 0
-102 -128 0
-102 -141 0
-102 -154 0
-102 -167 0
-102 -180 0
-115 -128 0
-115 -141 0
-115 -154 0
-115 -167 0
-115 -180 0
-128 -141 0
-128 -154 0
-128 -167 0
-128 -180 0
-141 -154 0
-141 -167 0
-141 -180 0
-154 -167 0
-154 -180 0
-167 -180 0
-12 -25 0
-12 -38 0
-12 -51 0
-12 -64 0
-12 -77 0
-12 -90 0
-12 -103 0
-12 -116 0
-12 -129 0
-12 -142 0
-12 -155 0
-12 -168 0
-12 -181 0
-25 -38 0
-25 -51 0
-25 -64 0
-25 -77 0
-25 -90 0
-25 -103 0
-25 -116 0
-25 -129 0
-25 -142 0
-25 -155 0
-25 -168 0
-25 -181 0
-38 -51 0
-38 -64 0
-38 -77 0
-38 -90 0
-38 -103 0
-38 -116 0
-38 -129 0
-38 -142 0
-38 -155 0
-38 -168 0
-38 -181 0
-51 -64 0
-51 -77 0
-51 -90 0
-51 -103 0
-51 -116 0
-51 -129 0
-51 -142 0
-51 -155 0
-51 -168 0
-51 -181 0
-64 -77 0
-64 -90 0
-64 -103 0
-64 -116 0
-64 -129 0
-64 -142 0
-64 -155 0
-64 -168 0
-64 -181 0
-77 -90 0
-77 -103 0
-77 -116 0
-77 -129 0
-77 -142 0
-77 -155 0
-77 -168 0
-77 -181 0
-90 -103 0
-90 -116 0
-90 -129 0
-90 -142 0
-90 -155 0
-90 -168 0
-90 -181 0
-103 -116 0
-103 -129 0
-103 -142 0
-103 -155 0
-103 -168 0
-103 -181 0
-116 -129 0
-116 -142 0
-116 -155 0
-116 -168 0
-116 -181 0
-129 -142 0
-129 -155 0
-129 -168 0
-129 -181 0
-142 -155 0
-142 -168 0
-142 -181 0
-155 -168 0
-155 -181 0
-168 -181 0
-13 -26 0
-13 -39 0
-13 -52 0
-13 -65 0
-13 -78 0
-13 -91 0
-13 -104 0
-13 -117 0
-13 -130 0
-13 -143 0
-13 -156 0
-13 -169 0
-13 -182 0
-26 -39 0
-26 -52 0
-26 -65 0
-26 -78 0
-26 -91 0
-26 -104 0
-26 -117 0
-26 -130 0
-26 -143 0
-26 -156 0
-26 -169 0
-26 -182 0
-39 -52 0
-39 -65 0
-39 -78 0
-39 -91 0
-39 -104 0
-39 -117 0
-39 -130 0
-39 -143 0
-39 -156 0
-39 -169 0
-39 -182 0
-52 -65 0
-52 -78 0
-52 -91 0
-52 -104 0
-52 -117 0
-52 -130 0
-52 -143 0
-52 -156 0
-52 -169 0
-52 -182 0
-65 -78 0
-65 -91 0
-65 -104 0
-65 -117 0
-65 -130 0
-65 -143 0
-65 -156 0
-65 -169 0
-65 -182 0
-78 -91 0
-78 -104 0
-78 -117 0
-78 -130 0
-78 -143 0
-78 -156 0
-78 -169 0
-78 -182 0
-91 -104 0
-91 -117 0
-91 -130 0
-91 -143 0
-91 -156 0
-91 -169 0
-91 -182 0
-104 -117 0
-104 -130 0
-104 -143 0
-104 -156 0
-104 -169 0
-104 -182 0
-117 -130 0
-117 -143 0
-117 -156 0
-117 -169 0
-117 -182 0
-130 -143 0
-130 -156 0
-130 -169 0
-130 -182 0
-143 -156 0
-143 -169 0
-143 -182 0
-156 -169 0
-156 -182 0
-169 -182 0
a 1 15 0 
a 2 14 0 
a 1 16 0 
a 3 14 0 
a 1 17 0 
a 4 14 0 
a 1 18 0 
a 5 14 0 
a 1 19 0 
a 6 14 0 
a 1 20 0 
a 7 14 0 
a 1 21 0 
a 8 14 0 
a 1 22 0 
a 9 14 0 
a 1 23 0 
a 10 14 0 
a 1 24 0 
a 11 14 0 
a 1 25 0 
a 12 14 0 
a 1 26 0 
a 13 14 0 
a 1 27 0 
a 14 14 0 
a 14 0 
a 1 28 0 
a 2 27 0 
a 1 29 0 
a 3 27 0 
a 1 30 0 
a 4 27 0 
a 1 31 0 
a 5 27 0 
a 1 32 0 
a 6 27 0 
a 1 33 0 
a 7 27 0 
a 1 34 0 
a 8 27 0 
a 1 35 0 
a 9 27 0 
a 1 36 0 
a 10 27 0 
a 1 37 0 
a 11 27 0 
a 1 38 0 
a 12 27 0 
a 1 39 0 
a 13 27 0 
a 1 40 0 
a 14 27 0 
a 27 0 
a 1 41 0 
a 2 40 0 
a 1 42 0 
a 3 40 0 
a 1 43 0 
a 4 40 0 
a 1 44 0 
a 5 40 0 
a 1 45 0 
a 6 40 0 
a 1 46 0 
a 7 40 0 
a 1 47 0 
a 8 40 0 
a 1 48 0 
a 9 40 0 
a 1 49 0 
a 10 40 0 
a 1 50 0 
a 11 40 0 
a 1 51 0 
a 12 40 0 
a 1 52 0 
a 13 40 0 
a 1 53 0 
a 14 40 0 
a 40 0 
a 1 54 0 
a 2 53 0 
a 1 55 0 
a 3 53 0 
a 1 56 0 
a 4 53 0 
a 1 57 0 
a 5 53 0 
a 1 58 0 
a 6 53 0 
a 1 59 0 
a 7 53 0 
a 1 60 0 
a 8 53 0 
a 1 61 0 
a 9 53 0 
a 1 62 0 
a 10 53 0 
a 1 63 0 
a 11 53 0 
a 1 64 0 
a 12 53 0 
a 1 65 0 
a 13 53 0 
a 1 66 0 
a 14 53 0 
a 53 0 
a 1 67 0 
a 2 66 0 
a 1 68 0 
a 3 66 0 
a 1 69 0 
a 4 66 0 
a 1 70 0 
a 5 66 0 
a 1 71 0 
a 6 66 0 
a 1 72 0 
a 7 66 0 
a 1 73 0 
a 8 66 0 
a 1 74 0 
a 9 66 0 
a 1 75 0 
a 10 66 0 
a 1 76 0 
a 11 66 0 
a 1 77 0 
a 12 66 0 
a 1 78 0 
a 13 66 0 
a 1 79 0 
a 14 66 0 
a 66 0 
a 1 80 0 
a 2 79 0 
a 1 81 0 
a 3 79 0 
a 1 82 0 
a 4 79 0 
a 1 83 0 
a 5 79 0 
a 1 84 0 
a 6 79 0 
a 1 85 0 
a 7 79 0 
a 1 86 0 
a 8 79 0 
a 1 87 0 
a 9 79 0 
a 1 88 0 
a 10 79 0 
a 1 89 0 
a 11 79 0 
a 1 90 0 
a 12 79 0 
a 1 91 0 
a 13 79 0 
a 1 92 0 
a 14 79 0 
a 79 0 
a 1 93 0 
a 2 92 0 
a 1 94 0 
a 3 92 0 
a 1 95 0 
a 4 92 0 
a 1 96 0 
a 5 92 0 
a 1 97 0 
a 6 92 0 
a 1 98 0 
a 7 92 0 
a 1 99 0 
a 8 92 0 
a 1 100 0 
a 9 92 0 
a 1 101 0 
a 10 92 0 
a 1 102 0 
a 11 92 0 
a 1 103 0 
a 12 92 0 
a 1 104 0 
a 13 92 0 
a 1 105 0 
a 14 92 0 
a 92 0 
a 1 106 0 
a 2 105 0 
a 1 107 0 
a 3 105 0 
a 1 108 0 
a 4 105 0 
a 1 109 0 
a 5 105 0 
a 1 110 0 
a 6 105 0 
a 1 111 0 
a 7 105 0 
a 1 112 0 
a 8 105 0 
a 1 113 0 
a 9 105 0 
a 1 114 0 
a 10 105 0 
a 1 115 0 
a 11 105 0 
a 1 116 0 
a 12 105 0 
a 1 117 0 
a 13 105 0 
a 1 118 0 
a 14 105 0 
a 105 0 
a 1 119 0 
a 2 118 0 
a 1 120 0 
a 3 118 0 
a 1 121 0 
a 4 118 0 
a 1 122 0 
a 5 118 0 
a 1 123 0 
a 6 118 0 
a 1 124 0 
a 7 118 0 
a 1 125 0 
a 8 118 0 
a 1 126 0 
a 9 118 0 
a 1 127 0 
a 10 118 0 
a 1 128 0 
a 11 118 0 
a 1 129 0 
a 12 118 0 
a 1 130 0 
a 13 118 0 
a 1 131 0 
a 14 118 0 
a 118 0 
a 1 132 0 
a 2 131 0 
a 1 133 0 
a 3 131 0 
a 1 134 0 
a 4 131 0 
a 1 135 0 
a 5 131 0 
a 1 136 0 
a 6 131 0 
a 1 137 0 
a 7 131 0 
a 1 138 0 
a 8 131 0 
a 1 139 0 
a 9 131 0 
a 1 140 0 
a 10 131 0 
a 1 141 0 
a 11 131 0 
a 1 142 0 
a 12 131 0 
a 1 143 0 
a 13 131 0 
a 1 144 0 
a 14 131 0 
a 131 0 
a 1 145 0 
a 2 144 0 
a 1 146 0 
a 3 144 0 
a 1 147 0 
a 4 144 0 
a 1 148 0 
a 5 144 0 
a 1 149 0 
a 6 144 0 
a 1 150 0 
a 7 144 0 
a 1 151 0 
a 8 144 0 
a 1 152 0 
a 9 144 0 
a 1 153 0 
a 10 144 0 
a 1 154 0 
a 11 144 0 
a 1 155 0 
a 12 144 0 
a 1 156 0 
a 13 144 0 
a 1 157 0 
a 14 144 0 
a 144 0 
a 1 158 0 
a 2 157 0 
a 1 159 0 
a 3 157 0 
a 1 160 0 
a 4 157 0 
a 1 161 0 
a 5 157 0 
a 1 162 0 
a 6 157 0 
a 1 163 0 
a 7 157 0 
a 1 164 0 
a 8 157 0 
a 1 165 0 
a 9 157 0 
a 1 166 0 
a 10 157 0 
a 1 167 0 
a 11 157 0 
a 1 168 0 
a 12 157 0 
a 1 169 0 
a 13 157 0 
a 1 170 0 
a 14 157 0 
a 157 0 
a 15 29 0 
a 16 28 0 
a 15 30 0 
a 17 28 0 
a 15 31 0 
a 18 28 0 
a 15 32 0 
a 19 28 0 
a 15 33 0 
a 20 28 0 
a 15 34 0 
a 21 28 0 
a 15 35 0 
a 22 28 0 
a 15 36 0 
a 23 28 0 
a 15 37 0 
a 24 28 0 
a 15 38 0 
a 25 28 0 
a 15 39 0 
a 26 28 0 
a 15 40 0 
a 27 28 0 
a 28 0 
a 15 42 0 
a 16 41 0 
a 15 43 0 
a 17 41 0 
a 15 44 0 
a 18 41 0 
a 15 45 0 
a 19 41 0 
a 15 46 0 
a 20 41 0 
a 15 47 0 
a 21 41 0 
a 15 48 0 
a 22 41 0 
a 15 49 0 
a 23 41 0 
a 15 50 0 
a 24 41 0 
a 15 51 0 
a 25 41 0 
a 15 52 0 
a 26 41 0 
a 15 53 0 
a 27 41 0 
a 41 0 
a 15 55 0 
a 16 54 0 
a 15 56 0 
a 17 54 0 
a 15 57 0 
a 18 54 0 
a 15 58 0 
a 19 54 0 
a 15 59 0 
a 20 54 0 
a 15 60 0 
a 21 54 0 
a 15 61 0 
a 22 54 0 
a 15 62 0 
a 23 54 0 
a 15 63 0 
a 24 54 0 
a 15 64 0 
a 25 54 0 
a 15 65 0 
a 26 54 0 
a 15 66 0 
a 27 54 0 
a 54 0 
a 15 68 0 
a 16 67 0 
a 15 69 0 
a 17 67 0 
a 15 70 0 
a 18 67 0 
a 15 71 0 
a 19 67 0 
a 15 72 0 
a 20 67 0 
a 15 73 0 
a 21 67 0 
a 15 74 0 
a 22 67 0 
a 15 75 0 
a 23 67 0 
a 15 76 0 
a 24 67 0 
a 15 77 0 
a 25 67 0 
a 15 78 0 
a 26 67 0 
a 15 79 0 
a 27 67 0 
a 67 0 
a 15 81 0 
a 16 80 0 
a 15 82 0 
a 17 80 0 
a 15 83 0 
a 18 80 0 
a 15 84 0 
a 19 80 0 
a 15 85 0 
a 20 80 0 
a 15 86 0 
a 21 80 0 
a 15 87 0 
a 22 80 0 
a 15 88 0 
a 23 80 0 
a 15 89 0 
a 24 80 0 
a 15 90 0 
a 25 80 0 
a 15 91 0 
a 26 80 0 
a 15 92 0 
a 27 80 0 
a 80 0 
a 15 94 0 
a 16 93 0 
a 15 95 0 
a 17 93 0 
a 15 96 0 
a 18 93 0 
a 15 97 0 
a 19 93 0 
a 15 98 0 
a 20 93 0 
a 15 99 0 
a 21 93 0 
a 15 100 0 
a 22 93 0 
a 15 101 0 
a 23 93 0 
a 15 102 0 
a 24 93 0 
a 15 103 0 
a 25 93 0 
a 15 104 0 
a 26 93 0 
a 15 105 0 
a 27 93 0 
a 93 0 
a 15 107 0 
a 16 106 0 
a 15 108 0 
a 17 106 0 
a 15 109 0 
a 18 106 0 
a 15 110 0 
a 19 106 0 
a 15 111 0 
a 20 106 0 
a 15 112 0 
a 21 106 0 
a 15 113 0 
a 22 106 0 
a 15 114 0 
a 23 106 0 
a 15 115 0 
a 24 106 0 
a 15 116 0 
a 25 106 0 
a 15 117 0 
a 26 106 0 
a 15 118 0 
a 27 106 0 
a 106 0 
a 15 120 0 
a 16 119 0 
a 15 121 0 
a 17 119 0 
a 15 122 0 
a 18 119 0 
a 15 123 0 
a 19 119 0 
a 15 124 0 
a 20 119 0 
a 15 125 0 
a 21 119 0 
a 15 126 0 
a 22 119 0 
a 15 127 0 
a 23 119 0 
a 15 128 0 
a 24 119 0 
a 15 129 0 
a 25 119 0 
a 15 130 0 
a 26 119 0 
a 15 131 0 
a 27 119 0 
a 119 0 
a 15 133 0 
a 16 132 0 
a 15 134 0 
a 17 132 0 
a 15 135 0 
a 18 132 0 
a 15 136 0 
a 19 132 0 
a 15 137 0 
a 20 132 0 
a 15 138 0 
a 21 132 0 
a 15 139 0 
a 22 132 0 
a 15 140 0 
a 23 132 0 
a 15 141 0 
a 24 132 0 
a 15 142 0 
a 25 132 0 
a 15 143 0 
a 26 132 0 
a 15 144 0 
a 27 132 0 
a 132 0 
a 15 146 0 
a 16 145 0 
a 15 147 0 
a 17 145 0 
a 15 148 0 
a 18 145 0 
a 15 149 0 
a 19 145 0 
a 15 150 0 
a 20 145 0 
a 15 151 0 
a 21 145 0 
a 15 152 0 
a 22 145 0 
a 15 153 0 
a 23 145 0 
a 15 154 0 
a 24 145 0 
a 15 155 0 
a 25 145 0 
a 15 156 0 
a 26 145 0 
a 15 157 0 
a 27 145 0 
a 145 0 
a 15 159 0 
a 16 158 0 
a 15 160 0 
a 17 158 0 
a 15 161 0 
a 18 158 0 
a 15 162 0 
a 19 158 0 
a 15 163 0 
a 20 158 0 
a 15 164 0 
a 21 158 0 
a 15 165 0 
a 22 158 0 
a 15 166 0 
a 23 158 0 
a 15 167 0 
a 24 158 0 
a 15 168 0 
a 25 158 0 
a 15 169 0 
a 26 158 0 
a 15 170 0 
a 27 158 0 
a 158 0 
a 29 43 0 
a 30 42 0 
a 29 44 0 
a 31 42 0 
a 29 45 0 
a 32 42 0 
a 29 46 0 
a 33 42 0 
a 29 47 0 
a 34 42 0 
a 29 48 0 
a 35 42 0 
a 29 49 0 
a 36 42 0 
a 29 50 0 
a 37 42 0 
a 29 51 0 
a 38 42 0 
a 29 52 0 
a 39 42 0 
a 29 53 0 
a 40 42 0 
a 42 0 
a 29 56 0 
a 30 55 0 
a 29 57 0 
a 31 55 0 
a 29 58 0 
a 32 55 0 
a 29 59 0 
a 33 55 0 
a 29 60 0 
a 34 55 0 
a 29 61 0 
a 35 55 0 
a 29 62 0 
a 36 55 0 
a 29 63 0 
a 37 55 0 
a 29 64 0 
a 38 55 0 
a 29 65 0 
a 39 55 0 
a 29 66 0 
a 40 55 0 
a 55 0 
a 29 69 0 
a 30 68 0 
a 29 70 0 
a 31 68 0 
a 29 71 0 
a 32 68 0 
a 29 72 0 
a 33 68 0 
a 29 73 0 
a 34 68 0 
a 29 74 0 
a 35 68 0 
a 29 75 0 
a 36 68 0 
a 29 76 0 
a 37 68 0 
a 29 77 0 
a 38 68 0 
a 29 78 0 
a 39 68 0 
a 29 79 0 
a 40 68 0 
a 68 0 
a 29 82 0 
a 30 81 0 
a 29 83 0 
a 31 81 0 
a 29 84 0 
a 32 81 0 
a 29 85 0 
a 33 81 0 
a 29 86 0 
a 34 81 0 
a 29 87 0 
a 35 81 0 
a 29 88 0 
a 36 81 0 
a 29 89 0 
a 37 81 0 
a 29 90 0 
a 38 81 0 
a 29 91 0 
a 39 81 0 
a 29 92 0 
a 40 81 0 
a 81 0 
a 29 95 0 
a 30 94 0 
a 29 96 0 
a 31 94 0 
a 29 97 0 
a 32 94 0 
a 29 98 0 
a 33 94 0 
a 29 99 0 
a 34 94 0 
a 29 100 0 
a 35 94 0 
a 29 101 0 
a 36 94 0 
a 29 102 0 
a 37 94 0 
a 29 103 0 
a 38 94 0 
a 29 104 0 
a 39 94 0 
a 29 105 0 
a 40 94 0 
a 94 0 
a 29 108 0 
a 30 107 0 
a 29 109 0 
a 31 107 0 
a 29 110 0 
a 32 107 0 
a 29 111 0 
a 33 107 0 
a 29 112 0 
a 34 107 0 
a 29 113 0 
a 35 107 0 
a 29 114 0 
a 36 107 0 
a 29 115 0 
a 37 107 0 
a 29 116 0 
a 38 107 0 
a 29 117 0 
a 39 107 0 
a 29 118 0 
a 40 107 0 
a 107 0 
a 29 121 0 
a 30 120 0 
a 29 122 0 
a 31 120 0 
a 29 123 0 
a 32 120 0 
a 29 124 0 
a 33 120 0 
a 29 125 0 
a 34 120 0 
a 29 126 0 
a 35 120 0 
a 29 127 0 
a 36 120 0 
a 29 128 0 
a 37 120 0 
a 29 129 0 
a 38 120 0 
a 29 130 0 
a 39 120 0 
a 29 131 0 
a 40 120 0 
a 120 0 
a 29 134 0 
a 30 133 0 
a 29 135 0 
a 31 133 0 
a 29 136 0 
a 32 133 0 
a 29 137 0 
a 33 133 0 
a 29 138 0 
a 34 133 0 
a 29 139 0 
a 35 133 0 
a 29 140 0 
a 36 133 0 
a 29 141 0 
a 37 133 0 
a 29 142 0 
a 38 133 0 
a 29 143 0 
a 39 133 0 
a 29 144 0 
a 40 133 0 
a 133 0 
a 29 147 0 
a 30 146 0 
a 29 148 0 
a 31 146 0 
a 29 149 0 
a 32 146 0 
a 29 150 0 
a 33 146 0 
a 29 151 0 
a 34 146 0 
a 29 152 0 
a 35 146 0 
a 29 153 0 
a 36 146 0 
a 29 154 0 
a 37 146 0 
a 29 155 0 
a 38 146 0 
a 29 156 0 
a 39 146 0 
a 29 157 0 
a 40 146 0 
a 146 0 
a 29 160 0 
a 30 159 0 
a 29 161 0 
a 31 159 0 
a 29 162 0 
a 32 159 0 
a 29 163 0 
a 33 159 0 
a 29 164 0 
a 34 159 0 
a 29 165 0 
a 35 159 0 
a 29 166 0 
a 36 159 0 
a 29 167 0 
a 37 159 0 
a 29 168 0 
a 38 159 0 
a 29 169 0 
a 39 159 0 
a 29 170 0 
a 40 159 0 
a 159 0 
a 43 57 0 
a 44 56 0 
a 43 58 0 
a 45 56 0 
a 43 59 0 
a 46 56 0 
a 43 60 0 
a 47 56 0 
a 43 61 0 
a 48 56 0 
a 43 62 0 
a 49 56 0 
a 43 63 0 
a 50 56 0 
a 43 64 0 
a 51 56 0 
a 43 65 0 
a 52 56 0 
a 43 66 0 
a 53 56 0 
a 56 0 
a 43 70 0 
a 44 69 0 
a 43 71 0 
a 45 69 0 
a 43 72 0 
a 46 69 0 
a 43 73 0 
a 47 69 0 
a 43 74 0 
a 48 69 0 
a 43 75 0 
a 49 69 0 
a 43 76 0 
a 50 69 0 
a 43 77 0 
a 51 69 0 
a 43 78 0 
a 52 69 0 
a 43 79 0 
a 53 69 0 
a 69 0 
a 43 83 0 
a 44 82 0 
a 43 84 0 
a 45 82 0 
a 43 85 0 
a 46 82 0 
a 43 86 0 
a 47 82 0 
a 43 87 0 
a 48 82 0 
a 43 88 0 
a 49 82 0 
a 43 89 0 
a 50 82 0 
a 43 90 0 
a 51 82 0 
a 43 91 0 
a 52 82 0 
a 43 92 0 
a 53 82 0 
a 82 0 
a 43 96 0 
a 44 95 0 
a 43 97 0 
a 45 95 0 
a 43 98 0 
a 46 95 0 
a 43 99 0 
a 47 95 0 
a 43 100 0 
a 48 95 0 
a 43 101 0 
a 49 95 0 
a 43 102 0 
a 50 95 0 
a 43 103 0 
a 51 95 0 
a 43 104 0 
a 52 95 0 
a 43 105 0 
a 53 95 0 
a 95 0 
a 43 109 0 
a 44 108 0 
a 43 110 0 
a 45 108 0 
a 43 111 0 
a 46 108 0 
a 43 112 0 
a 47 108 0 
a 43 113 0 
a 48 108 0 
a 43 114 0 
a 49 108 0 
a 43 115 0 
a 50 108 0 
a 43 116 0 
a 51 108 0 
a 43 117 0 
a 52 108 0 
a 43 118 0 
a 53 108 0 
a 108 0 
a 43 122 0 
a 44 121 0 
a 43 123 0 
a 45 121 0 
a 43 124 0 
a 46 121 0 
a 43 125 0 
a 47 121 0 
a 43 126 0 
a 48 121 0 
a 43 127 0 
a 49 121 0 
a 43 128 0 
a 50 121 0 
a 43 129 0 
a 51 121 0 
a 43 130 0 
a 52 121 0 
a 43 131 0 
a 53 121 0 
a 121 0 
a 43 135 0 
a 44 134 0 
a 43 136 0 
a 45 134 0 
a 43 137 0 
a 46 134 0 
a 43 138 0 
a 47 134 0 
a 43 139 0 
a 48 134 0 
a 43 140 0 
a 49 134 0 
a 43 141 0 
a 50 134 0 
a 43 142 0 
a 51 134 0 
a 43 143 0 
a 52 134 0 
a 43 144 0 
a 53 134 0 
a 134 0 
a 43 148 0 
a 44 147 0 
a 43 149 0 
a 45 147 0 
a 43 150 0 
a 46 147 0 
a 43 151 0 
a 47 147 0 
a 43 152 0 
a 48 147 0 
a 43 153 0 
a 49 147 0 
a 43 154 0 
a 50 147 0 
a 43 155 0 
a 51 147 0 
a 43 156 0 
a 52 147 0 
a 43 157 0 
a 53 147 0 
a 147 0 
a 43 161 0 
a 44 160 0 
a 43 162 0 
a 45 160 0 
a 43 163 0 
a 46 160 0 
a 43 164 0 
a 47 160 0 
a 43 165 0 
a 48 160 0 
a 43 166 0 
a 49 160 0 
a 43 167 0 
a 50 160 0 
a 43 168 0 
a 51 160 0 
a 43 169 0 
a 52 160 0 
a 43 170 0 
a 53 160 0 
a 160 0 
a 57 71 0 
a 58 70 0 
a 57 72 0 
a 59 70 0 
a 57 73 0 
a 60 70 0 
a 57 74 0 
a 61 70 0 
a 57 75 0 
a 62 70 0 
a 57 76 0 
a 63 70 0 
a 57 77 0 
a 64 70 0 
a 57 78 0 
a 65 70 0 
a 57 79 0 
a 66 70 0 
a 70 0 
a 57 84 0 
a 58 83 0 
a 57 85 0 
a 59 83 0 
a 57 86 0 
a 60 83 0 
a 57 87 0 
a 61 83 0 
a 57 88 0 
a 62 83 0 
a 57 89 0 
a 63 83 0 
a 57 90 0 
a 64 83 0 
a 57 91 0 
a 65 83 0 
a 57 92 0 
a 66 83 0 
a 83 0 
a 57 97 0 
a 58 96 0 
a 57 98 0 
a 59 96 0 
a 57 99 0 
a 60 96 0 
a 57 100 0 
a 61 96 0 
a 57 101 0 
a 62 96 0 
a 57 102 0 
a 63 96 0 
a 57 103 0 
a 64 96 0 
a 57 104 0 
a 65 96 0 
a 57 105 0 
a 66 96 0 
a 96 0 
a 57 110 0 
a 58 109 0 
a 57 111 0 
a 59 109 0 
a 57 112 0 
a 60 109 0 
a 57 113 0 
a 61 109 0 
a 57 114 0 
a 62 109 0 
a 57 115 0 
a 63 109 0 
a 57 116 0 
a 64 109 0 
a 57 117 0 
a 65 109 0 
a 57 118 0 
a 66 109 0 
a 109 0 
a 57 123 0 
a 58 122 0 
a 57 124 0 
a 59 122 0 
a 57 125 0 
a 60 122 0 
a 57 126 0 
a 61 122 0 
a 57 127 0 
a 62 122 0 
a 57 128 0 
a 63 122 0 
a 57 129 0 
a 64 122 0 
a 57 130 0 
a 65 122 0 
a 57 131 0 
a 66 122 0 
a 122 0 
a 57 136 0 
a 58 135 0 
a 57 137 0 
a 59 135 0 
a 57 138 0 
a 60 135 0 
a 57 139 0 
a 61 135 0 
a 57 140 0 
a 62 135 0 
a 57 141 0 
a 63 135 0 
a 57 142 0 
a 64 135 0 
a 57 143 0 
a 65 135 0 
a 57 144 0 
a 66 135 0 
a 135 0 
a 57 149 0 
a 58 148 0 
a 57 150 0 
a 59 148 0 
a 57 151 0 
a 60 148 0 
a 57 152 0 
a 61 148 0 
a 57 153 0 
a 62 148 0 
a 57 154 0 
a 63 148 0 
a 57 155 0 
a 64 148 0 
a 57 156 0 
a 65 148 0 
a 57 157 0 
a 66 148 0 
a 148 0 
a 57 162 0 
a 58 161 0 
a 57 163 0 
a 59 161 0 
a 57 164 0 
a 60 161 0 
a 57 165 0 
a 61 161 0 
a 57 166 0 
a 62 161 0 
a 57 167 0 
a 63 161 0 
a 57 168 0 
a 64 161 0 
a 57 169 0 
a 65 161 0 
a 57 170 0 
a 66 161 0 
a 161 0 
a 71 85 0 
a 72 84 0 
a 71 86 0 
a 73 84 0 
a 71 87 0 
a 74 84 0 
a 71 88 0 
a 75 84 0 
a 71 89 0 
a 76 84 0 
a 71 90 0 
a 77 84 0 
a 71 91 0 
a 78 84 0 
a 71 92 0 
a 79 84 0 
a 84 0 
a 71 98 0 
a 72 97 0 
a 71 99 0 
a 73 97 0 
a 71 100 0 
a 74 97 0 
a 71 101 0 
a 75 97 0 
a 71 102 0 
a 76 97 0 
a 71 103 0 
a 77 97 0 
a 71 104 0 
a 78 97 0 
a 71 105 0 
a 79 97 0 
a 97 0 
a 71 111 0 
a 72 110 0 
a 71 112 0 
a 73 110 0 
a 71 113 0 
a 74 110 0 
a 71 114 0 
a 75 110 0 
a 71 115 0 
a 76 110 0 
a 71 116 0 
a 77 110 0 
a 71 117 0 
a 78 110 0 
a 71 118 0 
a 79 110 0 
a 110 0 
a 71 124 0 
a 72 123 0 
a 71 125 0 
a 73 123 0 
a 71 126 0 
a 74 123 0 
a 71 127 0 
a 75 123 0 
a 71 128 0 
a 76 123 0 
a 71 129 0 
a 77 123 0 
a 71 130 0 
a 78 123 0 
a 71 131 0 
a 79 123 0 
a 123 0 
a 71 137 0 
a 72 136 0 
a 71 138 0 
a 73 136 0 
a 71 139 0 
a 74 136 0 
a 71 140 0 
a 75 136 0 
a 71 141 0 
a 76 136 0 
a 71 142 0 
a 77 136 0 
a 71 143 0 
a 78 136 0 
a 71 144 0 
a 79 136 0 
a 136 0 
a 71 150 0 
a 72 149 0 
a 71 151 0 
a 73 149 0 
a 71 152 0 
a 74 149 0 
a 71 153 0 
a 75 149 0 
a 71 154 0 
a 76 149 0 
a 71 155 0 
a 77 149 0 
a 71 156 0 
a 78 149 0 
a 71 157 0 
a 79 149 0 
a 149 0 
a 71 163 0 
a 72 162 0 
a 71 164 0 
a 73 162 0 
a 71 165 0 
a 74 162 0 
a 71 166 0 
a 75 162 0 
a 71 167 0 
a 76 162 0 
a 71 168 0 
a 77 162 0 
a 71 169 0 
a 78 162 0 
a 71 170 0 
a 79 162 0 
a 162 0 
a 85 99 0 
a 86 98 0 
a 85 100 0 
a 87 98 0 
a 85 101 0 
a 88 98 0 
a 85 102 0 
a 89 98 0 
a 85 103 0 
a 90 98 0 
a 85 104 0 
a 91 98 0 
a 85 105 0 
a 92 98 0 
a 98 0 
a 85 112 0 
a 86 111 0 
a 85 113 0 
a 87 111 0 
a 85 114 0 
a 88 111 0 
a 85 115 0 
a 89 111 0 
a 85 116 0 
a 90 111 0 
a 85 117 0 
a 91 111 0 
a 85 118 0 
a 92 111 0 
a 111 0 
a 85 125 0 
a 86 124 0 
a 85 126 0 
a 87 124 0 
a 85 127 0 
a 88 124 0 
a 85 128 0 
a 89 124 0 
a 85 129 0 
a 90 124 0 
a 85 130 0 
a 91 124 0 
a 85 131 0 
a 92 124 0 
a 124 0 
a 85 138 0 
a 86 137 0 
a 85 139 0 
a 87 137 0 
a 85 140 0 
a 88 137 0 
a 85 141 0 
a 89 137 0 
a 85 142 0 
a 90 137 0 
a 85 143 0 
a 91 137 0 
a 85 144 0 
a 92 137 0 
a 137 0 
a 85 151 0 
a 86 150 0 
a 85 152 0 
a 87 150 0 
a 85 153 0 
a 88 150 0 
a 85 154 0 
a 89 150 0 
a 85 155 0 
a 90 150 0 
a 85 156 0 
a 91 150 0 
a 85 157 0 
a 92 150 0 
a 150 0 
a 85 164 0 
a 86 163 0 
a 85 165 0 
a 87 163 0 
a 85 166 0 
a 88 163 0 
a 85 167 0 
a 89 163 0 
a 85 168 0 
a 90 163 0 
a 85 169 0 
a 91 163 0 
a 85 170 0 
a 92 163 0 
a 163 0 
a 99 113 0 
a 100 112 0 
a 99 114 0 
a 101 112 0 
a 99 115 0 
a 102 112 0 
a 99 116 0 
a 103 112 0 
a 99 117 0 
a 104 112 0 
a 99 118 0 
a 105 112 0 
a 112 0 
a 99 126 0 
a 100 125 0 
a 99 127 0 
a 101 125 0 
a 99 128 0 
a 102 125 0 
a 99 129 0 
a 103 125 0 
a 99 130 0 
a 104 125 0 
a 99 131 0 
a 105 125 0 
a 125 0 
a 99 139 0 
a 100 138 0 
a 99 140 0 
a 101 138 0 
a 99 141 0 
a 102 138 0 
a 99 142 0 
a 103 138 0 
a 99 143 0 
a 104 138 0 
a 99 144 0 
a 105 138 0 
a 138 0 
a 99 152 0 
a 100 151 0 
a 99 153 0 
a 101 151 0 
a 99 154 0 
a 102 151 0 
a 99 155 0 
a 103 151 0 
a 99 156 0 
a 104 151 0 
a 99 157 0 
a 105 151 0 
a 151 0 
a 99 165 0 
a 100 164 0 
a 99 166 0 
a 101 164 0 
a 99 167 0 
a 102 164 0 
a 99 168 0 
a 103 164 0 
a 99 169 0 
a 104 164 0 
a 99 170 0 
a 105 164 0 
a 164 0 
a 113 127 0 
a 114 126 0 
a 113 128 0 
a 115 126 0 
a 113 129 0 
a 116 126 0 
a 113 130 0 
a 117 126 0 
a 113 131 0 
a 118 126 0 
a 126 0 
a 113 140 0 
a 114 139 0 
a 113 141 0 
a 115 139 0 
a 113 142 0 
a 116 139 0 
a 113 143 0 
a 117 139 0 
a 113 144 0 
a 118 139 0 
a 139 0 
a 113 153 0 
a 114 152 0 
a 113 154 0 
a 115 152 0 
a 113 155 0 
a 116 152 0 
a 113 156 0 
a 117 152 0 
a 113 157 0 
a 118 152 0 
a 152 0 
a 113 166 0 
a 114 165 0 
a 113 167 0 
a 115 165 0 
a 113 168 0 
a 116 165 0 
a 113 169 0 
a 117 165 0 
a 113 170 0 
a 118 165 0 
a 165 0 
a 127 141 0 
a 128 140 0 
a 127 142 0 
a 129 140 0 
a 127 143 0 
a 130 140 0 
a 127 144 0 
a 131 140 0 
a 140 0 
a 127 154 0 
a 128 153 0 
a 127 155 0 
a 129 153 0 
a 127 156 0 
a 130 153 0 
a 127 157 0 
a 131 153 0 
a 153 0 
a 127 167 0 
a 128 166 0 
a 127 168 0 
a 129 166 0 
a 127 169 0 
a 130 166 0 
a 127 170 0 
a 131 166 0 
a 166 0 
a 141 155 0 
a 142 154 0 
a 141 156 0 
a 143 154 0 
a 141 157 0 
a 144 154 0 
a 154 0 
a 141 168 0 
a 142 167 0 
a 141 169 0 
a 143 167 0 
a 141 170 0 
a 144 167 0 
a 167 0 
a 155 169 0 
a 156 168 0 
a 155 170 0 
a 157 168 0 
a 168 0 
